12
6 0 1 9 10 7 7 4 1 2 3 1 8 9 0 6 4 0 8 7 5 2 1 4 0 0 6 5 5 2 5 8 8 6 10 0 9 5 4 6 9 5 9 11 2 1 9 5 0 9 10 4 4 3 7 2 3 4 4 3 1 8 0 2 2 6 7 3 5 1 2 11 3 7 6 5 2 3 0 1 7 1 3 3 1 0 4 8 3 10 11 0 5 11 9 6 2 0 2 5 
